C8Hn 
1
11.000000     0.000000     0.000000
0.000000     12.000000     0.000000
0.000000     0.000000     13.000000
C H
8     5
Direct
0.429273     0.435167     0.440154      
0.429273     0.564833     0.440154      
0.429273     0.435167     0.559846      
0.570727     0.435167     0.440154      
0.570727     0.564833     0.440154      
0.570727     0.435167     0.559846      
0.429273     0.564833     0.559846      
0.570727     0.564833     0.559846      
0.372691     0.383300     0.392277      
0.372691     0.616700     0.392277      
0.372691     0.383300     0.607723      
0.627309     0.616700     0.392277      
0.627309     0.383300     0.607723      
