C60Hn 
1
20.000000    0.000000    0.000000
0.000000    20.000000    0.000000
0.000000    0.000000    20.000000
C H
60           1
Direct
0.400699     0.615394     0.591566      
0.328701     0.536326     0.529760      
0.359613     0.558779     0.591569      
0.382787     0.630049     0.470240      
0.412524     0.651686     0.529750      
0.340059     0.571292     0.470239      
0.481604     0.674153     0.529754      
0.420982     0.630055     0.408435      
0.462480     0.615350     0.629755      
0.378713     0.500000     0.629738      
0.351858     0.534974     0.408424      
0.328701     0.463674     0.529760      
0.512468     0.651675     0.591569      
0.401891     0.571279     0.370253      
0.359613     0.441221     0.591569      
0.438209     0.500000     0.666528      
0.351858     0.465026     0.408424      
0.480883     0.558778     0.666551      
0.487532     0.651675     0.408431      
0.518396     0.674153     0.470246      
0.340059     0.428708     0.470239      
0.450012     0.536326     0.333432      
0.579018     0.630055     0.591565      
0.400699     0.384606     0.591566      
0.549988     0.536326     0.666568      
0.587476     0.651686     0.470250      
0.537520     0.615350     0.370245      
0.480883     0.441222     0.666551      
0.401891     0.428721     0.370253      
0.382787     0.369951     0.470240      
0.519117     0.558778     0.333449      
0.598109     0.571279     0.629747      
0.450012     0.463674     0.333432      
0.617213     0.630049     0.529760      
0.462480     0.384650     0.629755      
0.412524     0.348314     0.529750      
0.549988     0.463674     0.666568      
0.599301     0.615394     0.408434      
0.420982     0.369945     0.408435      
0.519117     0.441222     0.333449      
0.659941     0.571292     0.529761      
0.561791     0.500000     0.333472      
0.481604     0.325847     0.529754      
0.648142     0.534974     0.591576      
0.512468     0.348325     0.591569      
0.598109     0.428721     0.629747      
0.640387     0.558779     0.408431      
0.487532     0.348325     0.408431      
0.537520     0.384650     0.370245      
0.671299     0.536326     0.470240      
0.648142     0.465026     0.591576      
0.579018     0.369945     0.591565      
0.621287     0.500000     0.370262      
0.518396     0.325847     0.470246      
0.640387     0.441221     0.408431      
0.659941     0.428708     0.529761      
0.587476     0.348314     0.470250      
0.617213     0.369951     0.529760      
0.599301     0.384606     0.408434      
0.671299     0.463674     0.470240      
0.370608     0.650362     0.619313      
