c60  0.000000                           
   1.00000000000000     
    20.0000000000000000    0.0000000000000000    0.0000000000000000
     0.0000000000000000   20.0000000000000000    0.0000000000000000
     0.0000000000000000    0.0000000000000000   20.0000000000000000
   C 
    60
Direct
  0.4006989844499828  0.6153943959139675  0.5915659079073181
  0.3287010535353394  0.5363262527470827  0.5297603776546175
  0.3596129493691281  0.5587789121700760  0.5915685613147755
  0.3827865731839541  0.6300490342404705  0.4702397534829805
  0.4125239352883380  0.6516857979994169  0.5297503783205746
  0.3400589529051454  0.5712915394301444  0.4702386246929075
  0.4816043567255278  0.6741534764627033  0.5297541805553541
  0.4209822795467310  0.6300551948801768  0.4084348383299750
  0.4624796705882055  0.6153500263306614  0.6297550485848740
  0.3787127220943214  0.5000000000000000  0.6297379902294054
  0.3518583480163535  0.5349736162334552  0.4084242029181075
  0.3287010535353394  0.4636737472529174  0.5297603776546175
  0.5124680574023459  0.6516748158932998  0.5915687729903278
  0.4018907089273083  0.5712794593060656  0.3702525715835607
  0.3596129493691281  0.4412210878299240  0.5915685613147755
  0.4382094000962740  0.5000000000000000  0.6665276370821459
  0.3518583480163535  0.4650263837665448  0.4084242029181075
  0.4808826362682023  0.5587779851717793  0.6665510332491357
  0.4875319425976544  0.6516748158932998  0.4084312270096722
  0.5183956432744722  0.6741534764627033  0.4702458194446458
  0.3400589529051454  0.4287084605698555  0.4702386246929075
  0.4500119449235882  0.5363257616781509  0.3334323878888500
  0.5790177204532692  0.6300551948801768  0.5915651616700252
  0.4006989844499828  0.3846056040860326  0.5915659079073181
  0.5499880550764119  0.5363257616781509  0.6665676121111500
  0.5874760647116622  0.6516857979994169  0.4702496216794253
  0.5375203294117943  0.6153500263306614  0.3702449514151261
  0.4808826362682023  0.4412220148282208  0.6665510332491357
  0.4018907089273083  0.4287205406939344  0.3702525715835607
  0.3827865731839541  0.3699509657595295  0.4702397534829805
  0.5191173637317977  0.5587779851717793  0.3334489667508645
  0.5981092910726917  0.5712794593060656  0.6297474284164394
  0.4500119449235882  0.4636742383218492  0.3334323878888500
  0.6172134268160459  0.6300490342404705  0.5297602465170197
  0.4624796705882055  0.3846499736693388  0.6297550485848740
  0.4125239352883380  0.3483142020005831  0.5297503783205746
  0.5499880550764119  0.4636742383218492  0.6665676121111500
  0.5993010155500171  0.6153943959139675  0.4084340920926817
  0.4209822795467310  0.3699448051198230  0.4084348383299750
  0.5191173637317977  0.4412220148282208  0.3334489667508645
  0.6599410470948548  0.5712915394301444  0.5297613753070924
  0.5617905999037259  0.5000000000000000  0.3334723629178541
  0.4816043567255278  0.3258465235372968  0.5297541805553541
  0.6481416519836465  0.5349736162334552  0.5915757970818927
  0.5124680574023459  0.3483251841067003  0.5915687729903278
  0.5981092910726917  0.4287205406939344  0.6297474284164394
  0.6403870506308789  0.5587789121700760  0.4084314386852243
  0.4875319425976544  0.3483251841067003  0.4084312270096722
  0.5375203294117943  0.3846499736693388  0.3702449514151261
  0.6712989464646606  0.5363262527470827  0.4702396223453826
  0.6481416519836465  0.4650263837665448  0.5915757970818927
  0.5790177204532692  0.3699448051198230  0.5915651616700252
  0.6212872779056786  0.5000000000000000  0.3702620097705945
  0.5183956432744722  0.3258465235372968  0.4702458194446458
  0.6403870506308789  0.4412210878299240  0.4084314386852243
  0.6599410470948548  0.4287084605698555  0.5297613753070924
  0.5874760647116622  0.3483142020005831  0.4702496216794253
  0.6172134268160459  0.3699509657595295  0.5297602465170197
  0.5993010155500171  0.3846056040860326  0.4084340920926817
  0.6712989464646606  0.4636737472529174  0.4702396223453826
 
  0.00000000E+00  0.00000000E+00  0.00000000E+00
  0.00000000E+00  0.00000000E+00  0.00000000E+00
  0.00000000E+00  0.00000000E+00  0.00000000E+00
  0.00000000E+00  0.00000000E+00  0.00000000E+00
  0.00000000E+00  0.00000000E+00  0.00000000E+00
  0.00000000E+00  0.00000000E+00  0.00000000E+00
  0.00000000E+00  0.00000000E+00  0.00000000E+00
  0.00000000E+00  0.00000000E+00  0.00000000E+00
  0.00000000E+00  0.00000000E+00  0.00000000E+00
  0.00000000E+00  0.00000000E+00  0.00000000E+00
  0.00000000E+00  0.00000000E+00  0.00000000E+00
  0.00000000E+00  0.00000000E+00  0.00000000E+00
  0.00000000E+00  0.00000000E+00  0.00000000E+00
  0.00000000E+00  0.00000000E+00  0.00000000E+00
  0.00000000E+00  0.00000000E+00  0.00000000E+00
  0.00000000E+00  0.00000000E+00  0.00000000E+00
  0.00000000E+00  0.00000000E+00  0.00000000E+00
  0.00000000E+00  0.00000000E+00  0.00000000E+00
  0.00000000E+00  0.00000000E+00  0.00000000E+00
  0.00000000E+00  0.00000000E+00  0.00000000E+00
  0.00000000E+00  0.00000000E+00  0.00000000E+00
  0.00000000E+00  0.00000000E+00  0.00000000E+00
  0.00000000E+00  0.00000000E+00  0.00000000E+00
  0.00000000E+00  0.00000000E+00  0.00000000E+00
  0.00000000E+00  0.00000000E+00  0.00000000E+00
  0.00000000E+00  0.00000000E+00  0.00000000E+00
  0.00000000E+00  0.00000000E+00  0.00000000E+00
  0.00000000E+00  0.00000000E+00  0.00000000E+00
  0.00000000E+00  0.00000000E+00  0.00000000E+00
  0.00000000E+00  0.00000000E+00  0.00000000E+00
  0.00000000E+00  0.00000000E+00  0.00000000E+00
  0.00000000E+00  0.00000000E+00  0.00000000E+00
  0.00000000E+00  0.00000000E+00  0.00000000E+00
  0.00000000E+00  0.00000000E+00  0.00000000E+00
  0.00000000E+00  0.00000000E+00  0.00000000E+00
  0.00000000E+00  0.00000000E+00  0.00000000E+00
  0.00000000E+00  0.00000000E+00  0.00000000E+00
  0.00000000E+00  0.00000000E+00  0.00000000E+00
  0.00000000E+00  0.00000000E+00  0.00000000E+00
  0.00000000E+00  0.00000000E+00  0.00000000E+00
  0.00000000E+00  0.00000000E+00  0.00000000E+00
  0.00000000E+00  0.00000000E+00  0.00000000E+00
  0.00000000E+00  0.00000000E+00  0.00000000E+00
  0.00000000E+00  0.00000000E+00  0.00000000E+00
  0.00000000E+00  0.00000000E+00  0.00000000E+00
  0.00000000E+00  0.00000000E+00  0.00000000E+00
  0.00000000E+00  0.00000000E+00  0.00000000E+00
  0.00000000E+00  0.00000000E+00  0.00000000E+00
  0.00000000E+00  0.00000000E+00  0.00000000E+00
  0.00000000E+00  0.00000000E+00  0.00000000E+00
  0.00000000E+00  0.00000000E+00  0.00000000E+00
  0.00000000E+00  0.00000000E+00  0.00000000E+00
  0.00000000E+00  0.00000000E+00  0.00000000E+00
  0.00000000E+00  0.00000000E+00  0.00000000E+00
  0.00000000E+00  0.00000000E+00  0.00000000E+00
  0.00000000E+00  0.00000000E+00  0.00000000E+00
  0.00000000E+00  0.00000000E+00  0.00000000E+00
  0.00000000E+00  0.00000000E+00  0.00000000E+00
  0.00000000E+00  0.00000000E+00  0.00000000E+00
  0.00000000E+00  0.00000000E+00  0.00000000E+00
